(set-logic BV) (define-fun origCir ((n192 Bool) (n113 Bool) (n161 Bool) (n156 Bool)) Bool (and n192 (not (and (not (and n161 n113)) n156)))) (synth-fun skel ((n192 Bool) (n113 Bool) (n161 Bool) (n156 Bool)) Bool) (declare-var n192 Bool) (declare-var n113 Bool) (declare-var n161 Bool) (declare-var n156 Bool) (constraint (= (origCir n192 n113 n161 n156) (skel n192 n113 n161 n156))) (check-synth)
